NAME : single
TYPE : ATSP
DIMENSION : 17
EDGE_WEIGHT_TYPE : EXPLICIT
EDGE_WEIGHT_FORMAT : FULL_MATRIX
EDGE_WEIGHT_SECTION
0 5209 4930 4619 4645 4615 4590 4583 4598 4580 4457 4201 2611 259 -2512 1996 1996 
0 0 167 341 352 550 618 858 965 1152 961 1140 2261 1999 1999 2301 2472 
0 167 0 174 235 517 535 743 874 1013 829 988 2052 1906 1843 2238 2432 
0 341 174 0 213 535 493 644 801 876 706 833 2201 3953 4286 3168 3242 
0 352 235 213 0 726 703 853 1014 1061 903 1016 2177 1998 2010 2305 2470 
0 550 517 535 726 0 180 449 471 801 600 872 1886 1465 1359 1761 1877 
0 618 535 493 703 180 0 278 350 626 423 692 1703 1207 1365 1639 1806 
0 858 743 644 853 449 278 0 204 352 156 447 1415 1350 1348 1318 1421 
0 965 874 801 1014 471 350 204 0 441 304 582 1815 3512 3659 2265 2365 
0 1152 1013 876 1061 801 626 352 441 0 203 181 1016 1515 1423 1000 1104 
0 961 829 706 903 600 423 156 304 203 0 294 1159 1481 1449 1087 1215 
0 1140 988 833 1016 872 692 447 582 181 294 0 1203 2836 3030 1597 1651 
0 2261 2052 2201 2177 1886 1703 1415 1815 1016 1159 1203 0 1501 1527 471 521 
0 1999 1906 3953 1998 1465 1207 1350 3512 1515 1481 2836 1501 0 239 948 911 
0 1999 1843 4286 2010 1359 1365 1348 3659 1423 1449 3030 1527 239 0 899 864 
0 2301 2238 3168 2305 1761 1639 1318 2265 1000 1087 1597 471 948 899 0 98 
0 2472 2432 3242 2470 1877 1806 1421 2365 1104 1215 1651 521 911 864 98 0 
EOF